#
# NaH.cell
#

%BLOCK lattice_abc
Ang
3.393405 3.393405 3.393405
60.0 60.0 60.0
%ENDBLOCK lattice_abc

%BLOCK species_pot
Na na-krlda1.recpot
H  h-optlda1.recpot
%ENDBLOCK species_pot

%BLOCK positions_frac
Na 0 0 0
H  0.5 0.5 0.5
%ENDBLOCK positions_frac

kpoint_mp_grid 12 12 12
#kpoint_mp_offset 0.125 0.125 0.125
symmetry_generate

phonon_kpoint_mp_grid 4 4 4
phonon_kpoint_mp_offset 0.125 0.125 0.125

phonon_fine_kpoint_mp_grid 16 16 16
#%BLOCK phonon_fine_kpoint_path
# 0.0 0.0 0.0 ! Gamma
# 0.5 0.5 0.0 ! X (along Delta
# 1.0 1.0 1.0 ! Gamma (Sigma )
# 0.5 0.5 0.5 ! L (Delta)
# 0.5 0.75 0.25 ! W (Q)
# 0.5 0.5 0.0 ! X (Z)
#%ENDBLOCK phonon_fine_kpoint_path
