! Specify the lattice vectors.
%BLOCK LATTICE_CART
       2.130422493309720      -1.230000000000000       0.000000000000000
      -0.000000000000001       2.460000000000000       0.000000000000000
       0.000000000000000       0.000000000000000       6.800000000000000
%ENDBLOCK LATTICE_CART

! Specify the atomic positions
%BLOCK POSITIONS_FRAC
  C   0.0000000000000000  -0.0000000000000000   0.2500000000000000
  C   0.0000000000000000  -0.0000000000000000   0.7500000000000001
  C   0.3333333333333330   0.6666666666666670   0.2500000000000000
  C  -0.3333333333333330  -0.6666666666666671   0.7500000000000001
%ENDBLOCK POSITIONS_FRAC

! Specify the distance between kpoints. CASTEP will generate the most appropriate
! grid.
KPOINT_MP_SPACING : 0.05

! Generate the symmetry operations for the cell.
symmetry_generate

! Specify a path through the IBZ.
!%BLOCK BS_KPOINT_PATH
!    0.0000  0.00000 0.00000  ! G
!    0.0000  0.00000 0.50000  ! A
!   -0.3333  0.66667 0.50000  ! H
!   -0.3333  0.66667 0.00000  ! K
!    0.0000  0.00000 0.00000  ! G
!    0.0000  0.50000 0.00000  ! M
!    0.0000  0.50000 0.50000  ! L
!   -0.3333  0.66667 0.50000  ! H
!%ENDBLOCK BS_KPOINT_PATH

BS_KPOINT_MP_GRID 12 12 12
