%block lattice_cart
2.6954645 2.6954645 0.0 
2.6954645 0.0 2.6954645
0.0 2.6954645 2.6954645
%endblock lattice_cart

%block positions_frac
Si 0.00 0.00 0.00
Si 0.25 0.25 0.25
%endblock positions_frac

%block species_pot
Si Si_00.usp
%endblock species_pot

%block kpoints_list
  0.25 0.25 0.25 0.25
  0.5  0.5  0.25 0.75
%endblock kpoints_list

symmetry_generate

%block phonon_supercell_matrix
2 2 -2
1 -1 1
-1 1 1
%endblock phonon_supercell_matrix

supercell_kpoint_mp_grid 2 2 2

%BLOCK phonon_fine_kpoint_path
0.0 0.0 0.5
0.0 0.0 0.0
0.5 0.5 0.0
0.0 0.5 0.0
%ENDBLOCK phonon_fine_kpoint_path


